100
32
11
13
17
17
16
7
20
30
13
30
23
6
32
5
2
21
1
17
7
9
1
11
1
11
9
10
1
25
11
18
5
4
23
2
2
13
19
10
22
2
5
19
3
6
2
1
1
16
3
17
23
22
2
1
4
10
22
23
17
3
5
31
1
6
2
2
1
4
1
4
3
2
6
1
2
1
2
6
1
7
18
1
22
3
1
5
3
17
5
1
21
1
6
1
2
22
4
6
3
3